NAME          TestProblem
ROWS
 N  COST
 E  CON1
 E  CON2
 E  CON3
 E  CON4
COLUMNS
    x1        COST        -6
    x1        CON1         2
    x2        COST         4
    x2        CON1        -4
    x2        CON2        -6
    x2        CON3         2
    x2        CON4        16
    x3        COST        -2
    x3        CON1         2
    x3        CON2        -2
    x3        CON3         8
    x3        CON4       -12
    x4        COST        -8
    x4        CON1         2
    x4        CON2         2
    x4        CON4        -8
    x5        CON2         1
    x6        CON3         1
RHS
    RHS1      CON1        20
    RHS1      CON2        26
    RHS1      CON3         0
    RHS1      CON4       -84
BOUNDS
 LO BND1      x1         0
 LO BND1      x2         0
 LO BND1      x3         0
 LO BND1      x4         0
 LO BND1      x5         0
 LO BND1      x6         0
ENDATA
